LAMMPS (30 Mar 2026 - Development - patch_30Mar2026-158-g2863187f18-modified)
OMP_NUM_THREADS environment is not set. Defaulting to 1 thread.
  using 1 OpenMP thread(s) per MPI task
Created orthogonal box = (-5 -5 -5) to (5 5 5)
  1 by 1 by 1 MPI processor grid
Read molecule template water:
# Water molecule. Explicit TIP4P geometry for use with fix rigid
  1 molecules
  0 fragments
  0 bodies
  4 atoms with max type 3
  3 bonds with max type 2
  3 angles with max type 2
  0 dihedrals with max type 0
  0 impropers with max type 0
Created 132 atoms
  using lattice units in orthogonal box = (-5 -5 -5) to (5 5 5)
  create_atoms CPU = 0.003 seconds
  find clusters CPU = 0.000 seconds
Finding RIGS clusters ...
       0 = # of size 2 clusters
       0 = # of size 3 clusters
      33 = # of size 4 clusters
       0 = # of frozen angles
       0 = # of improper clusters
       0 = # of dihedral clusters
       0 = # of remaining size 4 clusters
      33 = # of upgraded improper clusters
PPPM initialization ...
  using 12-bit tables for long-range coulomb
  G vector (1/distance) = 0.35180663
  grid = 8 8 8
  stencil order = 5
  estimated absolute RMS force accuracy = 0.017760644
  estimated relative force accuracy = 5.3485652e-05
  using double precision MKL FFT
  3d grid and FFT values/proc = 3375 512
Generated 3 of 3 mixed pair_coeff terms from geometric mixing rule
WARNING: Using fix rigs with minimization.
  Substituting constraints with harmonic restraint forces using kbond=1987206.7 (src/RIGID/fix_shake.cpp:441)
Neighbor list info ...
  update: every = 1 steps, delay = 0 steps, check = no
  max neighbors/atom: 2000, page size: 100000
  master list distance cutoff = 10
  ghost atom cutoff = 10
  binsize = 5, bins = 2 2 2
  1 neighbor lists, perpetual/occasional/extra = 1 0 0
  (1) pair lj/cut/coul/long, perpetual
      attributes: half, newton on
      pair build: half/bin/newton
      stencil: half/bin/3d
      bin: standard
Setting up cg style minimization ...
  Unit style    : real
  Current step  : 0
Per MPI rank memory allocation (min/avg/max) = 9.653 | 9.653 | 9.653 Mbytes
   Step          Temp          E_pair         E_mol          TotEng         Press     
         0   0              13358.561      0              18923.43       22246973     
       200   0              1512.7665      0              1515.1115      433047.51    
Loop time of 2.49206 on 1 procs for 200 steps with 132 atoms

99.4% CPU use with 1 MPI tasks x 1 OpenMP threads

Minimization stats:
  Stopping criterion = energy tolerance
  Energy initial, next-to-last, final = 
      18923.4295327555   1515.11147746855   1515.11146831444
  Force two-norm initial, final = 298365.9 8225.3451
  Force max component initial, final = 65097.099 4948.7647
  Final line search alpha, max atom move = 2.5258767e-06 0.01249997
  Iterations, force evaluations = 200 1149

MPI task timing breakdown:
Section |  min time  |  avg time  |  max time  |%varavg| %total
---------------------------------------------------------------
Pair    | 0.91404    | 0.91404    | 0.91404    |   0.0 | 36.68
Bond    | 0.0002047  | 0.0002047  | 0.0002047  |   0.0 |  0.01
Kspace  | 0.12685    | 0.12685    | 0.12685    |   0.0 |  5.09
Neigh   | 1.2437     | 1.2437     | 1.2437     |   0.0 | 49.91
Comm    | 0.093495   | 0.093495   | 0.093495   |   0.0 |  3.75
Output  | 0          | 0          | 0          |   0.0 |  0.00
Modify  | 0.086281   | 0.086281   | 0.086281   |   0.0 |  3.46
Other   |            | 0.02747    |            |       |  1.10

Nlocal:            132 ave         132 max         132 min
Histogram: 1 0 0 0 0 0 0 0 0 0
Nghost:           3432 ave        3432 max        3432 min
Histogram: 1 0 0 0 0 0 0 0 0 0
Neighs:          36502 ave       36502 max       36502 min
Histogram: 1 0 0 0 0 0 0 0 0 0

Total # of neighbors = 36502
Ave neighs/atom = 276.5303
Ave special neighs/atom = 3
Neighbor list builds = 1150
Dangerous builds not checked
System init for write_data ...
PPPM initialization ...
  using 12-bit tables for long-range coulomb
  G vector (1/distance) = 0.35180663
  grid = 8 8 8
  stencil order = 5
  estimated absolute RMS force accuracy = 0.017760644
  estimated relative force accuracy = 5.3485652e-05
  using double precision MKL FFT
  3d grid and FFT values/proc = 3375 512
Generated 3 of 3 mixed pair_coeff terms from geometric mixing rule
33 atoms in group o
66 atoms in group h
33 atoms in group m
PPPM initialization ...
  using 12-bit tables for long-range coulomb
  G vector (1/distance) = 0.35180663
  grid = 8 8 8
  stencil order = 5
  estimated absolute RMS force accuracy = 0.017760644
  estimated relative force accuracy = 5.3485652e-05
  using double precision MKL FFT
  3d grid and FFT values/proc = 3375 512
Generated 3 of 3 mixed pair_coeff terms from geometric mixing rule
Setting up Verlet run ...
  Unit style    : real
  Current step  : 200
  Time step     : 0.01

rigs_stats summary: a_count[1]=112 a_count[2]=226
RIGS stats (type/ave/delta/count) on step 200
Angle:  1   102.41 63.3161       37
Angle:  2   56.1633 75.9041       75
Per MPI rank memory allocation (min/avg/max) = 8.528 | 8.528 | 8.528 Mbytes
   Step          Temp          TotEng         PotEng         KinEng         c_keo          c_keh          c_kem     
       200   0              1512.7665      1512.7665      0              0              0              0            
       201   0.047570663    1512.7874      1512.7693      0.018150286    0.0088574227   0.0092928634   0            
       202   0.11021721     1512.7866      1512.7445      0.042052679    0.03332938     0.0087232988   0            
       203   0.23080967     1512.7853      1512.6973      0.088063973    0.07757673     0.010487244    0            
       204   0.40422657     1512.7882      1512.634       0.1542301      0.13750605     0.016724048    0            
       205   0.62587794     1512.7884      1512.5496      0.23879978     0.21394895     0.024850829    0            
       206   0.8952714      1512.7901      1512.4485      0.34158515     0.30412642     0.037458729    0            
       207   1.211799       1512.7898      1512.3274      0.46235427     0.41112859     0.051225681    0            
       208   1.5758918      1512.7901      1512.1888      0.60127159     0.53339611     0.067875471    0            
       209   1.9866252      1512.7886      1512.0306      0.75798432     0.67318844     0.084795883    0            

rigs_stats summary: a_count[1]=112 a_count[2]=226
RIGS stats (type/ave/delta/count) on step 210
Angle:  1   102.404 63.305       37
Angle:  2   56.1262 75.9154       75
       210   2.4447905      1512.7873      1511.8545      0.93279437     0.82862462     0.10416975     0            
       211   2.950449       1512.7846      1511.6589      1.1257252      1.0010733      0.12465186     0            
       212   3.5042999      1512.7821      1511.4451      1.3370435      1.1890852      0.14795825     0            
       213   4.10642        1512.779       1511.2122      1.5667786      1.3938868      0.17289184     0            
       214   4.7572021      1512.7761      1510.961       1.8150804      1.6146235      0.20045694     0            
       215   5.4567436      1512.7729      1510.6909      2.0819861      1.8522961      0.22969        0            
       216   6.2053284      1512.77        1510.4024      2.3676039      2.1062845      0.26131932     0            
       217   7.0031345      1512.7673      1510.0953      2.6720018      2.3772555      0.29474629     0            
       218   7.8504007      1512.7651      1509.7698      2.9952708      2.6647218      0.33054907     0            
       219   8.7472912      1512.7633      1509.4259      3.3374737      2.9691383      0.36833543     0            
       220   9.6939098      1512.7615      1509.0629      3.6986501      3.2901598      0.40849033     0            
       221   10.69027       1512.7611      1508.6823      4.078805       3.6280976      0.45070742     0            
       222   11.736252      1512.7614      1508.2835      4.477893       3.9826753      0.49521766     0            
       223   12.831631      1512.7623      1507.8665      4.8958277      4.3540439      0.54178387     0            
       224   13.976022      1512.7638      1507.4314      5.3324631      4.7419174      0.59054565     0            
       225   15.16895       1512.7657      1506.9781      5.7876169      5.1462937      0.6413232      0            
       226   16.409813      1512.7678      1506.5067      6.2610607      5.5668664      0.69419434     0            
       227   17.697984      1512.7699      1506.0174      6.7525539      6.0035365      0.74901741     0            
       228   19.032796      1512.7718      1505.5099      7.2618433      6.4560142      0.80582912     0            
       229   20.41365       1512.7732      1504.9845      7.7886993      6.9241782      0.86452107     0            
       230   21.84001       1512.774       1504.4411      8.3329178      7.4078042      0.92511354     0            
       231   23.311478      1512.774       1503.8797      8.8943473      7.9068125      0.98753484     0            
       232   24.827788      1512.7733      1503.3004      9.4728859      8.4210785      1.0518074      0            
       233   26.388837      1512.7716      1502.7032      10.068494      8.9505982      1.1178958      0            
       234   27.994654      1512.7692      1502.088       10.681183      9.4953507      1.1858326      0            
       235   29.645405      1512.766       1501.455       11.311017      10.055404      1.2556132      0            
       236   31.34135       1512.7622      1500.8041      11.958094      10.630814      1.32728        0            
       237   33.082819      1512.758       1500.1355      12.622541      11.221691      1.4008501      0            
       238   34.870175      1512.7505      1499.446       13.304495      11.828124      1.4763709      0            
       239   36.703786      1512.7461      1498.742       14.004098      12.450228      1.5538699      0            
       240   38.583995      1512.7441      1498.0226      14.72148       13.088088      1.6333916      0            
       241   40.511095      1512.7402      1497.2835      15.456753      13.74179       1.7149625      0            
       242   42.485311      1512.7368      1496.5268      16.210002      14.411386      1.798616       0            
       243   44.506786      1512.734       1495.7527      16.981283      15.096915      1.8843684      0            
       244   46.575562      1512.7334      1494.9628      17.770612      15.798376      1.9722358      0            
       245   48.691581      1512.7321      1494.1542      18.577965      16.515747      2.0622183      0            
       246   50.854673      1512.7316      1493.3284      19.403279      17.248968      2.1543118      0            
       247   53.064563      1512.7318      1492.4854      20.246449      17.99795       2.2484986      0            
       248   55.32087       1512.7327      1491.6254      21.107329      18.762573      2.3447558      0            
       249   57.623122      1512.7342      1490.7484      21.985739      19.542688      2.4430501      0            
       250   59.970772      1512.7361      1489.8546      22.881469      20.338124      2.543345       0            
       251   62.363216      1512.7382      1488.944       23.794291      21.148693      2.6455981      0            
       252   64.799827      1512.7405      1488.0165      24.723965      21.974197      2.7497673      0            
       253   67.279975      1512.7427      1487.0725      25.67025       22.81444       2.8558096      0            
       254   69.803061      1512.7448      1486.1119      26.632917      23.669231      2.9636863      0            
       255   72.368545      1512.7464      1485.1347      27.611761      24.538399      3.0733627      0            
       256   74.975962      1512.7476      1484.141       28.606605      25.421794      3.1848114      0            
       257   77.624948      1512.7482      1483.1309      29.617309      26.319297      3.2980122      0            
       258   80.315242      1512.7482      1482.1044      30.643774      27.23082       3.412954       0            
       259   83.046692      1512.7476      1481.0616      31.685941      28.156307      3.5296338      0            
       260   85.819246      1512.7463      1480.0026      32.743792      29.095734      3.6480571      0            
       261   88.632943      1512.7416      1478.9242      33.81734       30.049103      3.7682366      0            
       262   91.487891      1512.7396      1477.833       34.906627      31.016436      3.8901911      0            
       263   94.38425       1512.7374      1476.7257      36.011715      31.997771      4.0139435      0            
       264   97.322205      1512.7329      1475.6002      37.132673      32.993154      4.1395194      0            
       265   100.30194      1512.7307      1474.4611      38.269573      34.002628      4.2669448      0            
       266   103.32363      1512.7289      1473.3064      39.422479      35.026234      4.3962447      0            
       267   106.38739      1512.7274      1472.1359      40.591439      36.063998      4.5274407      0            
       268   109.4933       1512.7264      1470.9499      41.776478      37.115928      4.6605499      0            
       269   112.64135      1512.7245      1469.7469      42.977596      38.182012      4.7955837      0            
       270   115.83145      1512.7248      1468.5301      44.194759      39.262213      4.9325468      0            
       271   119.06344      1512.7259      1467.298       45.427904      40.356468      5.0714365      0            
       272   122.33706      1512.7276      1466.0507      46.676932      41.464688      5.2122432      0            
       273   125.65196      1512.7299      1464.7882      47.941713      42.586762      5.3549504      0            
       274   129.00774      1512.7327      1463.5107      49.22209       43.722554      5.4995357      0            
       275   132.40393      1512.7361      1462.2183      50.517882      44.87191       5.6459715      0            
       276   135.83999      1512.74        1460.9111      51.82889       46.034663      5.7942267      0            
       277   139.31538      1512.744       1459.5891      53.154903      47.210635      5.944268       0            
       278   142.82953      1512.7482      1458.2525      54.495707      48.399646      6.0960614      0            
       279   146.3819       1512.7525      1456.9014      55.851091      49.601517      6.2495739      0            
       280   149.97196      1512.7567      1455.5358      57.220855      50.81608       6.4047748      0            
       281   153.59922      1512.7609      1454.1561      58.604812      52.043175      6.5616371      0            
       282   157.26325      1512.7648      1452.762       60.0028        53.282662      6.7201385      0            
       283   160.96369      1512.7684      1451.3537      61.41468       54.534418      6.8802621      0            
       284   164.70025      1512.7717      1449.9314      62.840339      55.798343      7.0419967      0            
       285   168.47269      1512.7748      1448.4951      64.279692      57.074355      7.2053369      0            
       286   172.28087      1512.776       1447.0433      65.732678      58.362395      7.3702827      0            
       287   176.12467      1512.7802      1445.5809      67.199257      59.662418      7.5368387      0            
       288   180.00405      1512.7827      1444.1033      68.679409      60.974395      7.7050136      0            
       289   183.91898      1512.7851      1442.612       70.173125      62.298306      7.8748189      0            
       290   187.86945      1512.7876      1441.1072      71.680403      63.634135      8.0462675      0            
       291   191.85546      1512.7903      1439.589       73.20124       64.981868      8.2193726      0            
       292   195.877        1512.7941      1438.0584      74.735632      66.341486      8.3941467      0            
       293   199.93402      1512.7974      1436.5139      76.283562      67.712962      8.5705999      0            
       294   204.02643      1512.8012      1434.9562      77.844998      69.096258      8.7487395      0            
       295   208.15412      1512.8054      1433.3856      79.419891      70.491322      8.9285689      0            
       296   212.3169       1512.8103      1431.8021      81.008173      71.898086      9.1100872      0            
       297   216.51453      1512.8157      1430.206       82.609751      73.316462      9.2932888      0            
       298   220.74671      1512.8217      1428.5972      84.224513      74.74635       9.4781636      0            
       299   225.0131       1512.8281      1426.9758      85.852327      76.18763       9.6646969      0            
       300   229.3133       1512.8358      1425.3428      87.49304       77.640169      9.8528705      0            
       301   233.64687      1512.8431      1423.6966      89.146487      79.103824      10.042663      0            
       302   238.01335      1512.8508      1422.0383      90.81249       80.578441      10.23405       0            
       303   242.41226      1512.8587      1420.3679      92.490867      82.06386       10.427007      0            
       304   246.84311      1512.8669      1418.6855      94.181429      83.559921      10.621508      0            
       305   251.30541      1512.8768      1416.9928      95.883994      85.066466      10.817528      0            
       306   255.79871      1512.8852      1415.2868      97.598384      86.583339      11.015045      0            
       307   260.32257      1512.8921      1413.5676      99.324432      88.110396      11.214036      0            
       308   264.87657      1512.9003      1411.8383      101.06198      89.6475        11.414483      0            
       309   269.46036      1512.9085      1410.0976      102.8109       91.194528      11.616372      0            
       310   274.07361      1512.9166      1408.3456      104.57106      92.751367      11.81969       0            
       311   278.71605      1512.9248      1406.5824      106.34235      94.317918      12.024431      0            
       312   283.38743      1512.9328      1404.8081      108.12468      95.894096      12.230588      0            
       313   288.08754      1512.9407      1403.0227      109.91798      97.479822      12.438161      0            
       314   292.81622      1512.9485      1401.2263      111.72218      99.07503       12.64715       0            
       315   297.5733       1512.9565      1399.4193      113.53721      100.67966      12.857557      0            
       316   302.35864      1512.9638      1397.6008      115.36303      102.29364      13.069386      0            
       317   307.1721       1512.9737      1395.7741      117.19957      103.91693      13.28264       0            
       318   312.01352      1512.9822      1393.9354      119.04679      105.54947      13.497322      0            
       319   316.88275      1512.991       1392.0864      120.90461      107.19118      13.713435      0            
       320   321.7796       1513.0001      1390.2271      122.77297      108.842        13.930977      0            
       321   326.70384      1513.0095      1388.3577      124.65179      110.50184      14.149948      0            
       322   331.65524      1513.0193      1386.4783      126.54096      112.17062      14.370341      0            
       323   336.63352      1513.0294      1384.589       128.44039      113.84824      14.592151      0            
       324   341.63835      1513.04        1382.69        130.34996      115.53459      14.815365      0            
       325   346.6694       1513.0508      1380.7812      132.26952      117.22955      15.039972      0            
       326   351.72629      1513.0619      1378.8629      134.19895      118.93299      15.265956      0            
       327   356.80862      1513.0734      1376.9353      136.13808      120.64478      15.4933        0            
       328   361.91597      1513.0851      1374.9983      138.08675      122.36477      15.721986      0            
       329   367.04793      1513.0969      1373.0521      140.04482      124.09283      15.951994      0            
       330   372.20405      1513.1087      1371.0966      142.01211      125.8288       16.183305      0            
       331   377.38393      1513.1192      1369.1307      143.98845      127.57256      16.415899      0            
       332   382.58713      1513.1312      1367.1575      145.9737       129.32394      16.649759      0            
       333   387.81325      1513.1432      1365.1755      147.9677       131.08283      16.884866      0            
       334   393.06192      1513.1545      1363.1842      149.97029      132.84909      17.121206      0            
       335   398.33277      1513.1664      1361.1851      151.98135      134.62259      17.358764      0            
       336   403.62548      1513.1784      1359.1776      154.00075      136.40322      17.59753       0            
       337   408.93972      1513.1901      1357.1618      156.02837      138.19088      17.837492      0            
       338   414.27522      1513.2018      1355.1377      158.0641       139.98545      18.078645      0            
       339   419.63171      1513.2118      1353.104       160.10783      141.78685      18.320981      0            
       340   425.00894      1513.2218      1351.0623      162.15948      143.59498      18.564496      0            
       341   430.40668      1513.2333      1349.0143      164.21895      145.40976      18.809186      0            
       342   435.82469      1513.2447      1346.9586      166.28616      147.23111      19.05505       0            
       343   441.26275      1513.2562      1344.8952      168.36102      149.05893      19.302083      0            
       344   446.72064      1513.2676      1342.8242      170.44344      150.89316      19.550283      0            
       345   452.19811      1513.2792      1340.7459      172.53333      152.73369      19.799647      0            
       346   457.69492      1513.2916      1338.661       174.63061      154.58044      20.05017       0            
       347   463.2108       1513.3041      1336.5689      176.73515      156.43331      20.301845      0            
       348   468.74546      1513.316       1334.4692      178.84687      158.29221      20.554666      0            
       349   474.29862      1513.328       1332.3624      180.96565      160.15702      20.808623      0            
       350   479.86996      1513.34        1330.2486      183.09135      162.02764      21.063707      0            
       351   485.45912      1513.3519      1328.1281      185.22386      163.90396      21.319905      0            
       352   491.06577      1513.3638      1326.0008      187.36304      165.78584      21.577205      0            
       353   496.68953      1513.3758      1323.867       189.50876      167.67316      21.835592      0            
       354   502.33004      1513.3877      1321.7268      191.66085      169.5658       22.09505       0            
       355   507.9869       1513.3996      1319.5804      193.81919      171.46363      22.355565      0            
       356   513.65973      1513.4113      1317.4277      195.98363      173.36651      22.61712       0            
       357   519.34815      1513.4229      1315.2689      198.15401      175.27431      22.8797        0            
       358   525.05179      1513.4343      1313.1041      200.3302       177.18691      23.143289      0            
       359   530.77027      1513.4455      1310.9334      202.51205      179.10417      23.407873      0            
       360   536.50323      1513.4564      1308.757       204.69942      181.02598      23.673439      0            
       361   542.25034      1513.4671      1306.5749      206.89219      182.95222      23.939973      0            
       362   548.01126      1513.4774      1304.3872      209.09024      184.88277      24.207463      0            
       363   553.78567      1513.4874      1302.194       211.29343      186.81752      24.475901      0            
       364   559.57327      1513.4941      1299.9925      213.50165      188.75637      24.745275      0            
       365   565.37377      1513.5035      1297.7887      215.71479      190.69921      25.015578      0            
       366   571.18689      1513.5124      1295.5797      217.93275      192.64595      25.286803      0            
       367   577.01236      1513.5211      1293.3657      220.15542      194.59648      25.558942      0            
       368   582.8499       1513.528       1291.1453      222.3827       196.55071      25.831988      0            
       369   588.69926      1513.5359      1288.9214      224.61448      198.50855      26.105936      0            
       370   594.56016      1513.5436      1286.6929      226.85068      200.4699       26.380779      0            
       371   600.43234      1513.5509      1284.4597      229.09117      202.43466      26.656509      0            
       372   606.31552      1513.5578      1282.2219      231.33586      204.40274      26.93312       0            
       373   612.20942      1513.5643      1279.9797      233.58464      206.37403      27.210604      0            
       374   618.11374      1513.573       1277.7356      235.83739      208.34844      27.488952      0            
       375   624.02818      1513.5781      1275.4841      238.09401      210.32586      27.768153      0            
       376   629.95244      1513.5854      1273.231       240.35438      212.30618      28.048199      0            
       377   635.88619      1513.5898      1270.9714      242.61836      214.28928      28.329076      0            
       378   641.8291       1513.5945      1268.7087      244.88584      216.27507      28.610775      0            
       379   647.78083      1513.5987      1266.442       247.15669      218.2634       28.89328       0            
       380   653.74104      1513.6023      1264.1716      249.43077      220.25419      29.176581      0            
       381   659.70939      1513.6055      1261.8975      251.70795      222.24729      29.460662      0            
       382   665.68553      1513.6082      1259.62        253.98811      224.2426       29.745512      0            
       383   671.66912      1513.6103      1257.3392      256.27111      226.24         30.031115      0            
       384   677.65981      1513.6131      1255.0563      258.55682      228.23936      30.317459      0            
       385   683.65727      1513.6146      1252.7695      260.84511      230.24058      30.60453       0            
       386   689.66116      1513.6145      1250.4786      263.13586      232.24354      30.892317      0            
       387   695.67116      1513.6144      1248.1854      265.42894      234.24813      31.180807      0            
       388   701.68696      1513.6128      1245.8886      267.72423      236.25424      31.469988      0            
       389   707.70825      1513.6106      1243.589       270.02161      238.26176      31.759851      0            
       390   713.73473      1513.6076      1241.2866      272.32098      240.27059      32.050386      0            
       391   719.76611      1513.6036      1238.9814      274.62222      242.28063      32.341582      0            
       392   725.80211      1513.5966      1236.6714      276.92521      244.29178      32.633431      0            
       393   731.84245      1513.5901      1234.3603      279.22986      246.30394      32.925924      0            
       394   737.88684      1513.586       1232.0499      281.53606      248.31701      33.219052      0            
       395   743.93501      1513.5793      1229.7356      283.84371      250.3309       33.512806      0            
       396   749.98668      1513.5703      1227.4176      286.15268      252.34551      33.807179      0            
       397   756.04159      1513.5612      1225.0983      288.4629       254.36073      34.102162      0            
       398   762.09945      1513.5512      1222.777       290.77423      256.37649      34.397745      0            
       399   768.15999      1513.5417      1220.4551      293.08659      258.39267      34.69392       0            
       400   774.22291      1513.5297      1218.1298      295.39986      260.40919      34.990677      0            
Loop time of 0.449339 on 1 procs for 200 steps with 132 atoms

Performance: 0.385 ns/day, 62.408 hours/ns, 445.098 timesteps/s, 58.753 katom-step/s
99.6% CPU use with 1 MPI tasks x 1 OpenMP threads

MPI task timing breakdown:
Section |  min time  |  avg time  |  max time  |%varavg| %total
---------------------------------------------------------------
Pair    | 0.1621     | 0.1621     | 0.1621     |   0.0 | 36.08
Bond    | 4.1387e-05 | 4.1387e-05 | 4.1387e-05 |   0.0 |  0.01
Kspace  | 0.023462   | 0.023462   | 0.023462   |   0.0 |  5.22
Neigh   | 0.21565    | 0.21565    | 0.21565    |   0.0 | 47.99
Comm    | 0.016457   | 0.016457   | 0.016457   |   0.0 |  3.66
Output  | 0.0072338  | 0.0072338  | 0.0072338  |   0.0 |  1.61
Modify  | 0.023537   | 0.023537   | 0.023537   |   0.0 |  5.24
Other   |            | 0.0008543  |            |       |  0.19

Nlocal:            132 ave         132 max         132 min
Histogram: 1 0 0 0 0 0 0 0 0 0
Nghost:           3432 ave        3432 max        3432 min
Histogram: 1 0 0 0 0 0 0 0 0 0
Neighs:          36510 ave       36510 max       36510 min
Histogram: 1 0 0 0 0 0 0 0 0 0

Total # of neighbors = 36510
Ave neighs/atom = 276.59091
Ave special neighs/atom = 3
Neighbor list builds = 200
Dangerous builds not checked
System init for write_data ...
PPPM initialization ...
  using 12-bit tables for long-range coulomb
  G vector (1/distance) = 0.35180663
  grid = 8 8 8
  stencil order = 5
  estimated absolute RMS force accuracy = 0.017760644
  estimated relative force accuracy = 5.3485652e-05
  using double precision MKL FFT
  3d grid and FFT values/proc = 3375 512
Generated 3 of 3 mixed pair_coeff terms from geometric mixing rule
Total wall time: 0:00:02
